c turning on binary mode checking
c parsing input formula with 259840 variables and 1039934 clauses
c finished parsing, read 3183129 bytes from proof file
c detected empty clause; start verification via backward checking
c 3921 of 1039934 clauses in core                            
c 1334 of 127712 lemmas in core using 24272 resolution steps
c 0 RAT lemmas in core; 114 redundant literals in core lemmas
s VERIFIED
c verification time: 1.268 seconds
